NAME : teste
COMMENT : 225-city problem (Juenger,Raecke,Tschoecke)
TYPE : TSP
DIMENSION : 39
EDGE_WEIGHT_TYPE : EUC_2D
NODE_COORD_SECTION
1 4000 4000
2 4000 4500
3 4000 5000
4 4000 5500
5 4000 6000
6 4000 6500
7 4000 7000
8 4000 7500
9 4000 8000
10 4000 8500
11 4000 9000
12 4000 9500
13 4000 10000
14 4000 10500
15 4000 11000
16 4000 11500
17 4000 12000
18 4000 12500
19 4000 13000
20 4000 13500
21 4000 14000
22 4000 14500
23 4000 15000
24 4000 15500
25 4000 16000
26 7000 4000
27 7000 4500
28 7000 5000
29 7000 5500
30 7000 6000
31 7000 6500
32 7000 7000
33 7000 7500
34 7000 8000
35 7000 8500
36 7000 9000
37 7000 9500
38 7000 10000
39 7000 10500
EOF